51
130
40
0 2
0 5
1 7
1 19
2 5
2 6
3 13
3 22
3 23
3 25
3 34
4 6
5 6
5 37
6 14
6 24
7 11
7 15
7 19
7 26
7 39
7 40
7 47
8 27
8 37
8 46
9 38
9 42
10 11
10 16
10 24
10 35
10 36
10 43
10 49
11 12
11 15
11 43
11 49
12 15
12 32
12 41
13 26
13 44
13 47
14 24
14 31
14 33
14 34
14 39
14 49
15 32
15 41
16 35
16 36
17 20
17 24
17 31
18 19
20 21
20 24
20 31
21 24
21 31
22 23
22 25
23 25
23 26
23 28
24 31
25 34
26 28
26 32
26 35
26 36
26 44
26 47
27 29
27 30
27 37
27 38
27 42
27 46
27 48
28 32
28 35
28 36
29 30
29 41
29 43
29 44
29 45
29 47
30 42
31 33
31 34
31 39
31 49
32 35
32 36
32 41
33 34
33 39
33 49
34 35
34 44
34 45
34 50
35 36
35 50
37 38
37 42
37 46
37 48
38 42
38 46
38 48
39 40
39 49
41 43
41 44
41 45
41 47
42 46
42 48
43 49
44 45
44 47
45 47
46 48
0
1
2
3
4
5
6
7
8
9
10 11
12
13 14
15 16
17
18
19
20
21
22
23 24
25
26 27
28 29
30
31 32
33
34 35
36
37
38 39
40
41 42
43
44
45
46 47
48
49
50
